200
1000
623
623
619
615
614
614
613
611
603
599
599
597
586
569
568
567
564
563
562
561
559
553
544
544
542
539
537
537
532
528
527
517
517
509
506
494
494
489
489
487
486
485
484
483
474
473
472
471
471
463
462
460
458
456
451
450
447
447
446
435
431
430
422
417
415
412
410
407
406
405
399
399
393
392
392
386
385
381
381
380
379
378
376
367
362
362
361
360
356
354
348
346
342
341
340
339
338
336
328
328
324
318
318
315
313
312
311
308
300
298
296
296
295
290
285
282
282
282
279
278
278
269
260
259
258
255
254
254
244
227
226
225
225
223
218
217
216
214
207
206
206
205
204
203
203
202
200
195
193
190
188
186
183
183
181
181
180
179
179
172
171
170
167
166
165
160
158
155
149
148
148
139
138
136
132
130
130
129
128
127
125
120
119
118
118
115
109
107
104
101
95
91
90
76
60
55
53
45
39
37
